<instance format="XCSP3" type="CSP">
  <variables>
    <var id="x0"> 1 5 7 8 12 13 </var>
    <var id="x1"> 1 7 12 13 </var>
    <var id="x2"> 1 8 12 13 16 </var>
    <var id="x3"> 1 7 8 15 16 </var>
    <var id="x4"> 8 13 15 </var>
    <var id="x5"> 1 5 8 12 13 15 </var>
    <var id="x6"> 1 12 13 </var>
    <var id="x7"> 5 15 </var>
    <var id="x8"> 0 1 7 11 17 </var>
    <var id="x9"> 0 1 3 7 17 </var>
    <var id="x10"> 1 3 7 11 </var>
    <var id="x11"> 0 3 7 </var>
    <var id="x12"> 1 3 7 15 17 </var>
    <var id="x13"> 0 3 11 17 </var>
    <var id="x14"> 1 2 17 </var>
    <var id="x15"> 7 15 17 </var>
    <var id="x16"> 3 11 17 </var>
    <var id="x17"> 3 13 17 </var>
    <var id="x18"> 3 8 16 </var>
    <var id="x19"> 3 5 8 </var>
    <var id="x20"> 2 3 13 </var>
    <var id="x21"> 3 5 8 11 13 17 </var>
    <var id="x22"> 3 8 11 17 </var>
    <var id="x23"> 2 5 11 13 </var>
    <var id="x24"> 1 7 11 13 </var>
    <var id="x25"> 1 6 7 13 </var>
    <var id="x26"> 1 7 14 </var>
    <var id="x27"> 1 6 7 13 14 </var>
    <var id="x28"> 11 13 14 </var>
    <var id="x29"> 1 7 10 11 </var>
    <var id="x30"> 7 10 11 13 </var>
    <var id="x31"> 6 9 </var>
    <var id="x32"> 9 14 15 </var>
    <var id="x33"> 1 7..9 14 </var>
    <var id="x34"> 1 7 8 14 15 </var>
    <var id="x35"> 1 5 7 8 14 15 </var>
    <var id="x36"> 1 7 8 </var>
    <var id="x37"> 8 9 15 </var>
    <var id="x38"> 1 9 </var>
    <var id="x39"> 4 5 7 </var>
    <var id="x40"> 3 11 15 17 </var>
    <var id="x41"> 5 7 8 11 13 </var>
    <var id="x42"> 7 8 11 17 </var>
    <var id="x43"> 3 7 13 17 </var>
    <var id="x44"> 3 5 7 11 13 </var>
    <var id="x45"> 3 7 8 11 17 </var>
    <var id="x46"> 3 8 11 13 15 17 </var>
    <var id="x47"> 3 5 8 13 15 </var>
    <var id="x48"> 0 1 8 9 14 17 </var>
    <var id="x49"> 0 1 8 17 </var>
    <var id="x50"> 1 3 4 9 </var>
    <var id="x51"> 1 3 14 </var>
    <var id="x52"> 0 3 8 14 17 </var>
    <var id="x53"> 3 8 9 17 </var>
    <var id="x54"> 1 3 8 9 </var>
    <var id="x55"> 0 4 </var>
    <var id="x56"> 3 9 17 </var>
    <var id="x57"> 1 2 8 17 </var>
    <var id="x58"> 1 3 8 17 </var>
    <var id="x59"> 1..3 6 </var>
    <var id="x60"> 1 3 8 17 </var>
    <var id="x61"> 8 9 17 </var>
    <var id="x62"> 2 6 9 17 </var>
    <var id="x63"> 0 3 12 13 17 </var>
    <var id="x64"> 0 12 13 17 </var>
    <var id="x65"> 0 3 11 13 17 </var>
    <var id="x66"> 3 11 12 17 </var>
    <var id="x67"> 0 11 13 </var>
    <var id="x68"> 9 12 17 </var>
    <var id="x69"> 0 9 17 </var>
    <var id="x70"> 0 5 7 8 </var>
    <var id="x71"> 3..5 7 </var>
    <var id="x72"> 0 3..5 7 8 </var>
    <var id="x73"> 0 3 5 8 </var>
    <var id="x74"> 3 5 8 15 </var>
    <var id="x75"> 0 2 4 5 7 </var>
    <var id="x76"> 7 8 15 </var>
    <var id="x77"> 0 2 4 5 15 </var>
    <var id="x78"> 1 8 12 17 </var>
    <var id="x79"> 1 3 7 </var>
    <var id="x80"> 3 6..8 </var>
    <var id="x81"> 1 3 7 8 14 17 </var>
    <var id="x82"> 1 3 6 7 14 </var>
    <var id="x83"> 3 8 14 17 </var>
    <var id="x84"> 1 3 8 12 </var>
    <var id="x85"> 7 8 12 17 </var>
    <var id="x86"> 0 1 5 13 </var>
    <var id="x87"> 0 1 9 17 </var>
    <var id="x88"> 0 1 3 15 </var>
    <var id="x89"> 1 3 5 15 17 </var>
    <var id="x90"> 1 3 17 </var>
    <var id="x91"> 1 9 13 17 </var>
    <var id="x92"> 0 5 13 </var>
    <var id="x93"> 0 5 9 15 17 </var>
    <var id="x94"> 0 1 8 17 </var>
    <var id="x95"> 1 5 13 </var>
    <var id="x96"> 0 5 8 </var>
    <var id="x97"> 1 5 8 17 </var>
    <var id="x98"> 8 13 17 </var>
    <var id="x99"> 1 5 8 13 </var>
    <var id="x100"> 1 10 13 17 </var>
    <var id="x101"> 8 16 17 </var>
    <var id="x102"> 0 3 9 11 </var>
    <var id="x103"> 0 1 7 11 </var>
    <var id="x104"> 0 1 </var>
    <var id="x105"> 0 3 7 9 </var>
    <var id="x106"> 1 3 7 </var>
    <var id="x107"> 3 9 11 </var>
    <var id="x108"> 0 7 10 11 </var>
    <var id="x109"> 0 9 15 </var>
    <var id="x110"> 4 7 9 13 </var>
    <var id="x111"> 0 7 8 15 </var>
    <var id="x112"> 7 8 15 </var>
    <var id="x113"> 7 13 15 </var>
    <var id="x114"> 7 8 12 </var>
    <var id="x115"> 9 12 13 </var>
    <var id="x116"> 0 4 9 15 </var>
    <var id="x117"> 0 7 8 12 13 </var>
    <var id="x118"> 0 7..9 17 </var>
    <var id="x119"> 0 8 12 13 17 </var>
    <var id="x120"> 0 3 7..9 </var>
    <var id="x121"> 3 7 13 </var>
    <var id="x122"> 3 8 9 13 17 </var>
    <var id="x123"> 3 8 9 12 13 </var>
    <var id="x124"> 9 12 13 17 </var>
    <var id="x125"> 1 11 14 17 </var>
    <var id="x126"> 1 6 12 17 </var>
    <var id="x127"> 1 11 </var>
    <var id="x128"> 1 14 15 </var>
    <var id="x129"> 6 </var>
    <var id="x130"> 1 12 15 </var>
    <var id="x131"> 12 15 17 </var>
    <var id="x132"> 2 6 15 17 </var>
    <var id="x133"> 0 11 14 </var>
    <var id="x134"> 0 5 7 11..13 </var>
    <var id="x135"> 0 6 7 12 13 </var>
    <var id="x136"> 0 12 13 </var>
    <var id="x137"> 0 7 14 </var>
    <var id="x138"> 6 7 13 14 </var>
    <var id="x139"> 0 5 11 13 14 </var>
    <var id="x140"> 6 11 13 </var>
  </variables>
  <constraints>
    <group>
      <allDifferent> %... </allDifferent>
      <args> x0 x1 x2 x3 x4 x5 x6 x7 </args>
      <args> x8 x9 x10 x11 x12 x13 x14 x15 </args>
      <args> x16 x17 x18 x19 x20 x21 x22 x23 </args>
      <args> x24 x25 x26 x27 x28 x29 x30 x31 </args>
      <args> x32 x33 x34 x35 x36 x37 x38 x39 </args>
      <args> x40 x41 x42 x43 x44 x45 x46 x47 </args>
      <args> x48 x49 x50 x51 x52 x53 x54 x55 </args>
      <args> x56 x57 x58 x59 x60 x61 x62 </args>
      <args> x63 x64 x65 x66 x67 x68 x69 </args>
      <args> x70 x71 x72 x73 x74 x75 x76 x77 </args>
      <args> x78 x79 x80 x81 x82 x83 x84 x85 </args>
      <args> x86 x87 x88 x89 x90 x91 x92 x93 </args>
      <args> x94 x95 x96 x97 x98 x99 x100 x101 </args>
      <args> x102 x103 x104 x105 x106 x107 x108 </args>
      <args> x109 x110 x111 x112 x113 x114 x115 x116 </args>
      <args> x117 x118 x119 x120 x121 x122 x123 x124 </args>
      <args> x125 x126 x127 x128 x129 x130 x131 x132 </args>
      <args> x133 x134 x135 x136 x137 x138 x139 x140 </args>
      <args> x16 x32 x40 x56 x102 x109 x133 </args>
      <args> x0 x24 x41 x70 x86 x103 x117 x134 </args>
      <args> x8 x33 x42 x48 x87 x94 x118 x125 </args>
      <args> x1 x9 x17 x25 x43 x63 x126 x135 </args>
      <args> x2 x49 x57 x64 x78 x104 x119 x136 </args>
      <args> x10 x44 x50 x71 x79 x95 x110 x127 </args>
      <args> x3 x18 x26 x34 x88 x111 x128 x137 </args>
      <args> x11 x19 x72 x80 x96 x105 x120 x129 </args>
      <args> x12 x35 x58 x81 x89 x97 x106 x112 </args>
      <args> x20 x27 x51 x59 x82 x113 x121 x138 </args>
      <args> x13 x21 x28 x52 x65 x73 x83 x139 </args>
      <args> x22 x29 x36 x45 x60 x66 x90 x114 </args>
      <args> x4 x37 x46 x53 x98 x107 x122 x140 </args>
      <args> x5 x47 x54 x74 x84 x99 x123 x130 </args>
      <args> x6 x14 x38 x91 x100 x115 x124 </args>
      <args> x23 x30 x39 x55 x67 x75 x92 x108 </args>
      <args> x15 x61 x68 x76 x85 x101 x131 </args>
      <args> x7 x31 x62 x69 x77 x93 x116 x132 </args>
    </group>
  </constraints>
</instance>

